46
158

[3.64 2.95 1.16 3.52 1.45 4.36 0.2 2.05 4.24 2.11 2.36 0.39 1.98 3.47 4.03 1.5 0.48 3.73 1.83 2.92 0.17 1.39 0.22 1.73 1.22 4.6 1.84 1.43 1.03 2.3 0.27 1.35 1.09 4.48]

[14 72 54 85 84 58 77 22 82 96 48 75 83 12 6 90 15 61 12 57 42 65 1 37 90 5 26 40 83 33 71 26 27 92]
